p wcnf 120 1400
1 -117 -118 0
2 -114 115 0
7 -111 -117 0
8 -111 112 0
8 -108 -118 0
6 -108 117 0
3 -107 -118 0
5 -107 -116 0
9 -106 -119 0
6 -106 -115 0
6 -105 -109 0
1 -105 116 0
5 -102 -110 0
3 -102 -106 0
4 -102 103 0
7 -101 -104 0
4 -101 102 0
8 -100 -120 0
2 -100 -119 0
2 -100 -111 0
4 -100 -103 0
10 -97 -120 0
8 -97 101 0
3 -97 116 0
2 -96 -120 0
5 -96 -108 0
7 -96 -97 0
9 -96 117 0
8 -95 -114 0
8 -95 -96 0
2 -95 120 0
8 -94 -114 0
9 -94 -100 0
7 -94 -99 0
6 -94 114 0
7 -93 -109 0
3 -92 -99 0
8 -92 -93 0
2 -92 93 0
3 -92 108 0
4 -92 120 0
7 -91 -113 0
3 -91 -99 0
9 -91 -97 0
8 -91 99 0
5 -90 -98 0
6 -89 -102 0
3 -89 118 0
3 -88 -110 0
7 -88 106 0
4 -87 -120 0
6 -87 -110 0
7 -87 90 0
2 -87 96 0
8 -87 113 0
8 -86 -100 0
5 -85 -112 0
5 -85 94 0
7 -85 103 0
3 -85 116 0
3 -84 -116 0
8 -84 86 0
1 -84 87 0
2 -83 -117 0
5 -83 100 0
6 -83 112 0
8 -82 -115 0
8 -82 -112 0
5 -82 -93 0
9 -82 94 0
9 -82 102 0
8 -82 106 0
6 -81 -120 0
2 -81 -105 0
7 -81 -87 0
4 -81 82 0
6 -81 103 0
3 -80 -119 0
6 -80 -113 0
8 -80 -89 0
9 -80 -87 0
9 -80 92 0
4 -79 113 0
6 -78 -98 0
10 -78 102 0
2 -78 116 0
5 -77 -110 0
5 -77 -102 0
6 -77 -92 0
2 -77 -82 0
7 -77 100 0
9 -77 101 0
8 -77 115 0
7 -77 117 0
10 -76 -102 0
4 -76 -83 0
4 -76 -79 0
8 -76 92 0
1 -76 97 0
8 -76 99 0
7 -75 -105 0
9 -75 -100 0
6 -75 -81 0
3 -75 -77 0
1 -75 85 0
3 -75 88 0
7 -75 107 0
6 -75 115 0
5 -75 119 0
3 -74 107 0
4 -73 -120 0
4 -73 -114 0
2 -73 -86 0
7 -73 -84 0
9 -73 -74 0
2 -73 74 0
9 -73 97 0
4 -72 -102 0
5 -72 88 0
5 -72 111 0
5 -72 118 0
3 -71 -114 0
4 -71 -113 0
3 -71 -103 0
9 -71 -98 0
4 -71 -92 0
6 -71 -79 0
3 -71 88 0
2 -70 -100 0
6 -70 -96 0
9 -70 -82 0
8 -70 81 0
5 -70 109 0
5 -70 118 0
1 -70 120 0
5 -69 -98 0
7 -69 -93 0
7 -69 -86 0
2 -69 74 0
2 -69 84 0
9 -68 -115 0
5 -68 -99 0
4 -68 -72 0
10 -68 102 0
2 -68 103 0
3 -67 -112 0
1 -67 -109 0
1 -67 -101 0
6 -67 -97 0
6 -67 -73 0
6 -67 69 0
10 -67 76 0
7 -66 -70 0
9 -66 72 0
3 -66 82 0
6 -66 101 0
2 -65 -114 0
7 -65 -98 0
8 -65 -97 0
3 -65 -91 0
3 -65 -88 0
7 -65 -83 0
2 -65 82 0
8 -65 93 0
3 -64 -105 0
2 -64 -80 0
3 -64 -75 0
9 -64 66 0
8 -64 117 0
4 -63 -77 0
9 -63 66 0
6 -63 77 0
8 -63 89 0
3 -63 108 0
6 -63 115 0
9 -63 117 0
6 -63 119 0
6 -62 -108 0
9 -62 -104 0
2 -62 -82 0
2 -62 77 0
5 -62 91 0
1 -62 120 0
8 -61 -87 0
3 -61 -75 0
3 -61 82 0
4 -61 113 0
5 -61 120 0
9 -60 -94 0
2 -60 -77 0
7 -60 72 0
3 -60 75 0
8 -60 99 0
8 -59 -108 0
9 -59 -106 0
9 -59 -103 0
8 -59 -101 0
2 -59 92 0
8 -58 -97 0
6 -58 -89 0
5 -58 75 0
7 -58 91 0
3 -57 -62 0
3 -57 63 0
10 -57 64 0
8 -57 69 0
2 -57 78 0
6 -57 84 0
4 -57 107 0
10 -56 -99 0
6 -56 -93 0
5 -56 -86 0
5 -56 -84 0
7 -56 -69 0
2 -56 -63 0
7 -56 101 0
9 -56 115 0
5 -55 -114 0
1 -55 -108 0
9 -55 -92 0
6 -55 -82 0
7 -54 -116 0
1 -54 -100 0
4 -54 -86 0
5 -54 65 0
10 -54 72 0
3 -54 73 0
3 -54 75 0
2 -54 76 0
1 -54 102 0
8 -54 115 0
6 -54 120 0
8 -53 -79 0
1 -53 -55 0
8 -53 80 0
8 -53 92 0
8 -53 102 0
9 -53 104 0
3 -52 -117 0
2 -52 -111 0
9 -52 -103 0
9 -52 -88 0
5 -52 -65 0
3 -52 58 0
6 -52 85 0
7 -52 111 0
9 -51 -93 0
5 -51 -87 0
2 -51 77 0
9 -50 -97 0
3 -50 -65 0
7 -50 -63 0
6 -50 71 0
4 -50 103 0
10 -50 120 0
1 -49 -115 0
3 -49 -112 0
3 -49 -95 0
3 -49 -50 0
4 -49 86 0
4 -48 -90 0
2 -48 -89 0
10 -48 54 0
1 -48 56 0
2 -48 58 0
8 -48 63 0
8 -48 65 0
9 -47 -58 0
7 -47 53 0
1 -47 65 0
9 -47 71 0
6 -47 95 0
9 -46 -118 0
5 -46 -100 0
8 -46 -79 0
5 -46 76 0
1 -46 85 0
7 -46 94 0
8 -46 113 0
2 -45 -86 0
6 -45 -77 0
2 -45 -55 0
8 -45 -54 0
3 -45 50 0
4 -45 56 0
8 -45 77 0
3 -45 87 0
6 -45 93 0
10 -45 100 0
5 -45 109 0
10 -44 -95 0
3 -44 -82 0
6 -44 -72 0
9 -44 -59 0
4 -44 71 0
7 -44 83 0
7 -44 103 0
2 -43 -117 0
5 -43 -110 0
4 -43 -72 0
2 -43 -69 0
5 -42 -119 0
9 -42 -118 0
10 -42 -115 0
8 -42 -113 0
7 -42 -85 0
4 -42 -83 0
8 -42 -57 0
4 -42 -52 0
3 -42 -51 0
10 -42 47 0
9 -42 55 0
3 -42 80 0
8 -42 103 0
2 -41 -91 0
6 -41 -84 0
5 -41 -80 0
4 -41 -70 0
3 -41 -57 0
5 -41 -55 0
8 -41 -54 0
2 -41 -48 0
7 -41 98 0
4 -41 105 0
2 -41 109 0
10 -41 117 0
1 -40 -119 0
8 -40 -117 0
1 -40 -107 0
5 -40 -105 0
2 -40 -96 0
2 -40 -84 0
9 -40 -58 0
1 -40 -51 0
2 -40 48 0
7 -40 51 0
7 -40 71 0
5 -40 73 0
6 -40 101 0
10 -40 116 0
7 -39 -89 0
5 -39 -56 0
9 -39 -50 0
9 -39 44 0
3 -39 45 0
1 -39 87 0
6 -39 99 0
7 -39 111 0
4 -38 -112 0
7 -38 -98 0
2 -38 -94 0
3 -38 -55 0
9 -38 101 0
8 -38 118 0
6 -37 -118 0
10 -37 -100 0
7 -37 -99 0
6 -37 62 0
8 -37 110 0
7 -37 117 0
1 -36 -59 0
9 -36 67 0
8 -36 72 0
9 -36 77 0
9 -36 87 0
9 -36 106 0
7 -36 111 0
6 -36 117 0
4 -35 -72 0
2 -35 -66 0
6 -35 -43 0
1 -35 -38 0
7 -35 40 0
6 -35 48 0
9 -35 65 0
8 -35 88 0
6 -35 104 0
5 -35 117 0
5 -34 -103 0
9 -34 -55 0
2 -34 75 0
6 -33 -74 0
2 -33 -60 0
10 -33 -53 0
4 -33 47 0
6 -33 66 0
9 -33 77 0
1 -33 84 0
2 -33 102 0
7 -32 -95 0
8 -32 -60 0
3 -32 -58 0
6 -32 -46 0
6 -32 -45 0
2 -32 -36 0
6 -32 45 0
5 -32 67 0
7 -32 93 0
2 -32 119 0
9 -31 -36 0
9 -31 34 0
7 -31 59 0
9 -31 66 0
5 -31 87 0
3 -31 108 0
8 -30 -98 0
3 -30 -89 0
8 -30 -85 0
3 -30 -61 0
8 -30 -52 0
7 -30 49 0
5 -30 51 0
4 -30 75 0
7 -30 80 0
5 -30 99 0
7 -29 -95 0
4 -29 -94 0
4 -29 -91 0
7 -29 42 0
5 -29 66 0
1 -29 75 0
4 -29 88 0
6 -28 -108 0
7 -28 -69 0
9 -28 -59 0
7 -28 49 0
2 -28 67 0
5 -27 -100 0
5 -27 -73 0
3 -27 -42 0
3 -27 -30 0
3 -27 29 0
9 -27 67 0
2 -27 91 0
7 -27 97 0
2 -27 115 0
9 -26 -112 0
10 -26 -110 0
9 -26 -93 0
3 -26 -86 0
8 -26 -41 0
5 -26 -38 0
6 -26 52 0
1 -26 68 0
3 -26 93 0
1 -26 96 0
7 -26 111 0
5 -25 -53 0
4 -25 -47 0
4 -25 -28 0
9 -25 43 0
4 -25 76 0
8 -25 100 0
6 -24 -116 0
10 -24 -93 0
7 -24 -48 0
3 -24 -31 0
2 -24 33 0
2 -24 62 0
7 -24 75 0
4 -24 82 0
4 -24 111 0
9 -23 -84 0
4 -23 -81 0
5 -23 -79 0
6 -23 29 0
5 -23 79 0
4 -22 -99 0
6 -22 -76 0
4 -22 -61 0
6 -22 -59 0
3 -22 -54 0
8 -22 -40 0
3 -22 -28 0
4 -22 34 0
10 -22 45 0
3 -22 54 0
10 -22 66 0
5 -22 73 0
6 -22 86 0
4 -21 -100 0
4 -21 -95 0
9 -21 -91 0
1 -21 -62 0
9 -21 32 0
9 -21 39 0
7 -21 63 0
2 -21 100 0
10 -21 108 0
8 -20 -101 0
8 -20 -85 0
4 -20 -61 0
2 -20 40 0
7 -20 42 0
7 -20 52 0
5 -20 76 0
3 -20 96 0
1 -19 -110 0
9 -19 -85 0
7 -19 -74 0
4 -19 -72 0
5 -19 -51 0
9 -19 -47 0
2 -19 -43 0
6 -19 52 0
3 -19 56 0
2 -19 61 0
8 -19 66 0
3 -19 70 0
6 -19 103 0
4 -18 -118 0
5 -18 -95 0
10 -18 -89 0
3 -18 -88 0
6 -18 -71 0
9 -18 -24 0
2 -18 44 0
3 -18 45 0
1 -18 95 0
2 -18 106 0
10 -17 -113 0
8 -17 -90 0
5 -17 -88 0
1 -17 -76 0
5 -17 -68 0
1 -17 -54 0
6 -17 -33 0
7 -17 30 0
2 -17 39 0
4 -17 51 0
4 -17 61 0
5 -17 75 0
8 -17 95 0
4 -17 101 0
6 -17 117 0
5 -16 -98 0
6 -16 -97 0
7 -16 -90 0
3 -16 -82 0
7 -16 -57 0
4 -16 -51 0
6 -16 -32 0
3 -16 -28 0
3 -16 -24 0
7 -16 48 0
7 -16 57 0
2 -16 70 0
8 -16 90 0
9 -16 120 0
3 -15 -90 0
9 -15 -84 0
9 -15 -76 0
1 -15 -60 0
4 -15 34 0
9 -15 47 0
5 -15 53 0
4 -15 64 0
5 -15 67 0
2 -15 72 0
5 -15 81 0
8 -15 95 0
5 -15 112 0
9 -14 -107 0
6 -14 -98 0
8 -14 -92 0
5 -14 -77 0
10 -14 -66 0
3 -14 -60 0
2 -14 -37 0
3 -14 -33 0
10 -14 30 0
5 -14 34 0
7 -14 55 0
2 -14 110 0
7 -13 -100 0
5 -13 -99 0
9 -13 -90 0
8 -13 -88 0
3 -13 -79 0
8 -13 -75 0
1 -13 -68 0
2 -13 19 0
7 -13 62 0
1 -13 86 0
4 -12 -114 0
6 -12 -69 0
5 -12 -42 0
7 -12 -33 0
1 -12 44 0
6 -12 56 0
2 -12 117 0
8 -11 -85 0
1 -11 -63 0
10 -11 -61 0
5 -11 -59 0
8 -11 -42 0
5 -11 -24 0
5 -11 22 0
10 -11 29 0
6 -11 34 0
6 -11 44 0
9 -11 53 0
9 -11 74 0
3 -11 113 0
2 -10 -117 0
7 -10 -113 0
7 -10 -85 0
10 -10 -54 0
5 -10 -47 0
9 -10 -42 0
8 -10 -41 0
5 -10 15 0
10 -10 43 0
5 -10 68 0
5 -10 119 0
4 -9 -100 0
1 -9 -88 0
10 -9 -53 0
1 -9 -24 0
1 -9 21 0
6 -9 22 0
2 -9 24 0
9 -9 110 0
6 -8 -90 0
2 -8 -89 0
3 -8 -82 0
4 -8 -76 0
6 -8 -51 0
7 -8 -49 0
4 -8 32 0
1 -8 96 0
3 -8 115 0
3 -7 -110 0
10 -7 -108 0
5 -7 -87 0
4 -7 -77 0
6 -7 -14 0
2 -7 10 0
4 -7 38 0
1 -7 81 0
1 -7 83 0
2 -7 88 0
6 -7 107 0
1 -6 -106 0
5 -6 -64 0
10 -6 -58 0
4 -6 -57 0
6 -6 -54 0
10 -6 -28 0
4 -6 -22 0
6 -6 46 0
6 -6 50 0
6 -6 62 0
5 -6 89 0
2 -6 99 0
7 -6 108 0
7 -5 -101 0
5 -5 -86 0
3 -5 -78 0
3 -5 -58 0
7 -5 -33 0
3 -5 -14 0
5 -5 16 0
10 -5 17 0
3 -5 41 0
9 -5 42 0
4 -5 64 0
9 -5 109 0
2 -4 -82 0
7 -4 -72 0
9 -4 -63 0
2 -4 -60 0
7 -4 -56 0
5 -4 -35 0
2 -4 -30 0
3 -4 16 0
5 -4 18 0
5 -4 44 0
7 -4 62 0
4 -4 75 0
9 -4 99 0
3 -4 110 0
9 -3 -93 0
5 -3 -87 0
7 -3 -54 0
9 -3 -47 0
2 -3 27 0
3 -3 44 0
4 -3 46 0
3 -3 61 0
6 -3 73 0
1 -3 112 0
6 -3 117 0
10 -2 -89 0
1 -2 -86 0
8 -2 -83 0
9 -2 -63 0
4 -2 -41 0
7 -2 -40 0
1 -2 -20 0
10 -2 -10 0
6 -2 7 0
2 -2 71 0
7 -2 79 0
9 -2 84 0
3 -2 95 0
8 -2 105 0
4 -2 120 0
8 -1 -85 0
6 -1 -50 0
7 -1 -49 0
6 -1 -5 0
8 -1 6 0
6 -1 26 0
10 -1 34 0
4 1 -115 0
5 1 -103 0
1 1 -97 0
6 1 -55 0
8 1 -54 0
4 1 -43 0
2 1 -17 0
8 1 -4 0
8 1 2 0
2 1 24 0
9 1 45 0
6 1 51 0
10 1 118 0
3 2 -97 0
3 2 -66 0
10 2 -59 0
2 2 -51 0
7 2 -34 0
2 2 -26 0
8 2 -10 0
7 2 14 0
4 2 16 0
7 2 84 0
10 2 91 0
2 2 109 0
2 3 -81 0
7 3 -75 0
7 3 -72 0
9 3 -70 0
2 3 -9 0
7 3 24 0
3 3 83 0
6 3 97 0
7 4 -114 0
8 4 -76 0
4 4 -40 0
10 4 -9 0
9 4 -6 0
3 4 -5 0
8 4 38 0
10 4 41 0
1 4 53 0
4 4 64 0
9 4 108 0
3 5 -95 0
6 5 -83 0
9 5 -62 0
4 5 -30 0
3 5 -27 0
1 5 29 0
3 5 38 0
9 5 51 0
4 5 56 0
8 5 72 0
8 5 75 0
5 5 83 0
9 5 119 0
5 6 -94 0
2 6 -92 0
8 6 -66 0
6 6 -30 0
7 6 -14 0
1 6 36 0
2 6 64 0
4 6 80 0
8 6 83 0
5 6 112 0
4 6 116 0
7 6 120 0
7 7 -114 0
2 7 -108 0
7 7 -103 0
7 7 -100 0
5 7 -83 0
6 7 -76 0
9 7 -73 0
10 7 -62 0
6 7 -38 0
3 7 -23 0
3 7 14 0
6 7 45 0
5 7 80 0
2 7 91 0
9 8 -96 0
3 8 -56 0
9 8 -53 0
4 8 -41 0
2 8 -34 0
4 8 -24 0
4 8 -14 0
10 8 36 0
9 8 37 0
2 8 44 0
10 8 74 0
2 8 75 0
5 8 86 0
8 8 114 0
6 9 -89 0
8 9 -29 0
6 9 -28 0
3 9 -21 0
9 9 25 0
3 9 27 0
9 9 38 0
4 9 41 0
8 9 63 0
8 9 70 0
4 10 -108 0
4 10 -105 0
1 10 -62 0
6 10 -40 0
8 10 -17 0
5 10 95 0
7 10 113 0
7 10 116 0
7 11 -115 0
6 11 -104 0
10 11 -98 0
8 11 -69 0
9 11 -49 0
4 11 -24 0
8 11 23 0
9 11 26 0
5 11 60 0
8 11 72 0
9 12 -107 0
9 12 -92 0
6 12 -84 0
5 12 -83 0
7 12 -74 0
2 12 -68 0
7 12 -16 0
6 12 -15 0
4 12 24 0
6 12 37 0
9 12 54 0
2 12 68 0
4 12 78 0
3 12 97 0
5 12 113 0
4 12 120 0
7 13 -118 0
3 13 -91 0
8 13 -79 0
4 13 -74 0
9 13 -45 0
5 13 -21 0
9 13 37 0
9 13 56 0
3 13 95 0
8 13 97 0
3 14 -88 0
1 14 -56 0
7 14 -44 0
8 14 17 0
8 14 21 0
6 14 25 0
7 14 52 0
4 14 60 0
1 14 71 0
4 14 100 0
5 14 105 0
7 15 -114 0
9 15 -112 0
7 15 -62 0
4 15 -40 0
7 15 42 0
8 15 47 0
7 15 53 0
9 15 62 0
3 15 69 0
1 15 71 0
6 15 84 0
5 15 92 0
9 15 103 0
10 16 -101 0
4 16 -58 0
4 16 -51 0
9 16 -44 0
3 16 -32 0
6 16 109 0
7 17 -116 0
6 17 -91 0
6 17 -87 0
4 17 -41 0
3 17 -18 0
4 17 19 0
9 17 25 0
9 17 43 0
7 17 55 0
9 17 99 0
3 17 106 0
2 17 114 0
6 18 -97 0
1 18 -67 0
8 18 -60 0
9 18 -51 0
7 18 -39 0
7 18 -34 0
6 18 -29 0
6 18 67 0
8 18 78 0
7 19 -107 0
3 19 -67 0
3 19 -66 0
5 19 -33 0
2 19 23 0
7 19 63 0
8 19 67 0
10 19 82 0
9 20 -94 0
4 20 -59 0
7 20 -51 0
5 20 -24 0
9 20 43 0
10 20 120 0
7 21 -117 0
3 21 -82 0
9 21 -71 0
6 21 -40 0
9 21 -38 0
8 21 75 0
8 21 99 0
1 21 104 0
4 21 105 0
8 21 108 0
9 22 -116 0
3 22 -113 0
6 22 -98 0
5 22 -70 0
8 22 -67 0
2 22 -47 0
3 22 31 0
5 22 102 0
4 22 118 0
6 23 -85 0
9 23 -49 0
5 23 42 0
2 23 71 0
7 23 100 0
5 23 109 0
1 24 -116 0
1 24 -103 0
2 24 -38 0
5 24 -30 0
9 24 63 0
2 24 70 0
3 24 71 0
2 24 77 0
9 24 82 0
8 24 95 0
2 24 106 0
7 25 -50 0
6 25 -39 0
2 25 65 0
1 25 86 0
5 25 111 0
9 26 -80 0
3 26 -71 0
9 26 -54 0
5 26 48 0
2 26 56 0
2 26 60 0
7 26 102 0
6 27 -80 0
5 27 -53 0
3 27 -40 0
5 27 34 0
9 27 35 0
4 27 53 0
2 27 80 0
4 27 108 0
4 28 -98 0
2 28 -84 0
5 28 -70 0
9 28 -54 0
1 28 54 0
6 29 -110 0
1 29 -87 0
3 29 -47 0
5 29 38 0
8 29 50 0
3 29 71 0
2 29 99 0
5 29 115 0
4 30 -74 0
2 30 63 0
8 30 89 0
4 30 94 0
5 30 102 0
8 31 -109 0
7 31 -103 0
6 31 -93 0
8 31 -56 0
4 31 33 0
1 31 89 0
3 31 120 0
6 32 -70 0
5 32 -67 0
2 32 35 0
9 32 41 0
7 33 -117 0
5 33 -42 0
4 33 -39 0
8 33 35 0
8 33 68 0
3 33 71 0
8 33 80 0
4 33 97 0
3 34 -99 0
1 34 -86 0
8 34 -73 0
1 34 -66 0
3 34 -62 0
9 34 -52 0
5 34 -42 0
6 34 40 0
1 34 67 0
3 35 -106 0
9 35 -90 0
5 35 -88 0
1 35 -85 0
6 35 -68 0
9 35 -55 0
8 35 -52 0
10 35 -48 0
10 35 56 0
1 35 76 0
6 35 112 0
5 35 119 0
2 36 -115 0
5 36 -114 0
2 36 -102 0
6 36 -43 0
8 36 -39 0
9 36 46 0
4 36 68 0
10 36 110 0
7 37 -119 0
7 37 -116 0
2 37 -114 0
7 37 -106 0
5 37 -102 0
3 37 -63 0
9 37 75 0
4 37 85 0
7 37 94 0
6 37 104 0
4 37 107 0
9 38 -117 0
5 38 -88 0
8 38 -67 0
9 38 89 0
10 38 116 0
7 39 -102 0
7 39 -82 0
10 39 -43 0
7 39 52 0
8 39 59 0
5 39 95 0
2 40 -102 0
9 40 -101 0
9 40 -85 0
3 40 -57 0
5 40 -50 0
7 40 -43 0
1 40 -42 0
8 40 60 0
7 40 71 0
7 40 89 0
5 40 101 0
8 40 105 0
4 40 118 0
9 41 -109 0
10 41 -68 0
3 41 43 0
3 41 95 0
7 41 109 0
8 42 -109 0
6 42 -105 0
5 42 118 0
3 43 -80 0
4 43 -77 0
4 43 -59 0
3 43 -46 0
2 43 56 0
2 43 91 0
2 43 99 0
8 43 102 0
9 43 104 0
6 43 106 0
9 43 110 0
8 44 -117 0
6 44 -100 0
2 44 -93 0
3 44 -68 0
3 44 -65 0
2 44 -57 0
1 44 50 0
9 44 54 0
8 44 86 0
6 44 110 0
8 45 -113 0
2 45 -91 0
5 45 52 0
8 45 99 0
5 45 105 0
8 46 -117 0
4 46 -107 0
3 46 -85 0
4 46 -80 0
9 46 -64 0
5 46 51 0
7 46 53 0
3 46 59 0
6 46 74 0
8 46 82 0
4 46 85 0
7 46 93 0
6 46 119 0
3 47 -109 0
4 47 -104 0
4 47 -99 0
1 47 -88 0
9 47 -86 0
5 47 -84 0
3 47 -56 0
2 48 -115 0
6 48 -62 0
4 48 76 0
1 48 100 0
4 48 109 0
9 49 -88 0
8 49 57 0
6 49 62 0
4 49 74 0
6 49 88 0
10 49 106 0
1 49 111 0
9 50 -101 0
3 50 -96 0
4 50 -87 0
8 50 102 0
6 50 104 0
2 50 111 0
10 51 -107 0
3 51 -97 0
9 51 86 0
4 51 91 0
9 51 117 0
4 52 55 0
6 52 113 0
3 53 -113 0
8 53 -110 0
6 53 -86 0
1 53 -75 0
3 53 84 0
8 53 112 0
2 54 -113 0
8 54 -93 0
2 54 60 0
3 54 79 0
2 54 87 0
10 55 -99 0
10 55 -98 0
7 55 -76 0
4 55 60 0
6 55 100 0
6 56 -87 0
4 56 -76 0
5 56 -71 0
8 56 72 0
7 56 75 0
3 56 100 0
4 57 -92 0
8 57 -91 0
2 57 -58 0
6 57 59 0
7 57 101 0
5 57 104 0
5 57 118 0
1 58 -89 0
1 58 -71 0
6 58 114 0
8 58 118 0
7 59 -119 0
7 59 -90 0
10 59 -70 0
5 59 -69 0
8 59 75 0
7 59 76 0
6 59 93 0
1 59 100 0
8 59 107 0
6 60 -120 0
1 60 -110 0
5 60 -84 0
9 60 88 0
6 61 74 0
10 61 85 0
3 61 96 0
10 62 -109 0
8 62 -103 0
9 62 -81 0
2 62 -76 0
2 62 106 0
7 62 116 0
4 63 -79 0
7 63 -67 0
4 63 84 0
8 63 85 0
1 63 86 0
4 63 93 0
8 63 114 0
7 63 117 0
2 64 -111 0
5 64 -95 0
4 64 -91 0
2 64 -76 0
9 64 89 0
2 65 -118 0
8 65 -107 0
6 65 -105 0
2 65 -92 0
6 65 -75 0
2 65 68 0
2 65 73 0
10 65 79 0
10 65 94 0
7 66 -111 0
10 66 -108 0
3 66 -90 0
7 66 -85 0
8 66 -72 0
2 66 -71 0
8 66 97 0
9 67 -99 0
9 67 -89 0
2 67 -78 0
5 67 74 0
3 67 86 0
9 67 97 0
5 68 -111 0
6 68 -107 0
7 68 -90 0
2 68 114 0
7 69 -112 0
2 69 86 0
5 70 -111 0
8 70 -103 0
1 70 -92 0
6 70 73 0
6 70 80 0
6 70 96 0
7 70 103 0
2 70 104 0
7 70 109 0
8 71 -85 0
2 71 80 0
7 71 97 0
5 71 111 0
2 72 -117 0
9 72 -104 0
2 73 -109 0
9 73 -87 0
10 73 86 0
9 73 95 0
7 73 101 0
8 73 104 0
9 73 107 0
2 74 -119 0
1 74 -117 0
8 74 89 0
7 75 -108 0
6 75 -83 0
5 75 97 0
8 75 100 0
4 75 107 0
6 76 -118 0
3 76 -78 0
1 76 103 0
7 76 105 0
7 76 107 0
6 77 81 0
3 77 89 0
4 77 101 0
8 77 103 0
9 77 115 0
2 77 120 0
9 78 -115 0
6 78 -109 0
6 79 -81 0
10 79 84 0
4 79 120 0
7 80 -108 0
8 80 -101 0
4 80 -100 0
5 80 -97 0
6 80 -81 0
2 80 81 0
5 80 84 0
7 80 97 0
2 81 -108 0
2 81 86 0
4 81 89 0
8 81 106 0
6 82 -106 0
2 82 84 0
1 82 91 0
3 82 103 0
4 82 109 0
2 83 -116 0
8 83 -85 0
10 83 85 0
7 84 -111 0
1 85 -115 0
4 85 -106 0
5 85 -105 0
9 85 -104 0
5 85 92 0
4 85 120 0
5 86 -118 0
10 86 -92 0
3 86 98 0
8 87 99 0
6 88 -114 0
2 88 96 0
2 88 101 0
2 88 103 0
7 88 120 0
3 89 -104 0
5 89 100 0
4 90 -106 0
5 90 -95 0
7 90 -93 0
7 92 -114 0
3 92 -95 0
3 92 109 0
8 92 117 0
3 94 -118 0
5 94 98 0
1 94 106 0
4 94 109 0
3 95 98 0
1 95 104 0
10 96 -120 0
4 96 -116 0
4 96 -99 0
4 96 100 0
3 97 -120 0
8 97 -98 0
7 97 118 0
7 98 111 0
8 98 116 0
9 99 -117 0
5 99 100 0
4 99 108 0
1 100 103 0
6 100 106 0
5 100 108 0
7 101 -120 0
8 101 112 0
9 102 111 0
10 102 115 0
3 103 -108 0
6 103 110 0
6 103 115 0
4 104 118 0
8 105 -115 0
4 105 116 0
6 105 117 0
3 107 -115 0
4 107 109 0
8 108 -116 0
5 108 -110 0
4 108 109 0
8 109 117 0
7 111 -112 0
7 111 116 0
3 112 -119 0
9 112 117 0
5 112 118 0
9 113 -117 0
6 115 -116 0
3 116 -119 0
